c turning on binary mode checking
c parsing input formula with 259840 variables and 1039929 clauses
c finished parsing, read 25539951 bytes from proof file
c detected empty clause; start verification via backward checking
c 25830 of 1039929 clauses in core                            
c 35274 of 659005 lemmas in core using 290475 resolution steps
c 0 RAT lemmas in core; 2328 redundant literals in core lemmas
s VERIFIED
c verification time: 3.740 seconds
